Minimize
	value: tt

Subject to
tt + 1000 s_1_1 > 0.0
tt - t_1_1 - 1003.383309 s_1_1  + 3.383309 s_1_7  > -973.537678
tt + 1000 s_2_1 > 0.0
tt - t_2_1 - 1004.086248 s_2_1  + 4.086248 s_2_7  > -962.999000
tt + 1000 s_1_2 > 0.0
tt - t_1_2 - 1003.383309 s_1_2  + 3.383309 s_1_8  > -971.257200
tt + 1000 s_2_2 > 0.0
tt - t_2_2 - 1004.086248 s_2_2  + 4.086248 s_2_8  > -958.420600
tt + 1000 s_1_3 > 0.0
tt - t_1_3 - 1003.383309 s_1_3  + 3.383309 s_1_8  > -957.400600
tt + 1000 s_2_3 > 0.0
tt - t_2_3 - 1004.086248 s_2_3  + 4.086248 s_2_8  > -936.744400
tt + 1000 s_1_4 > 0.0
tt - t_1_4 - 1004.657941 s_1_4  + 1.274632 s_1_3  + 3.383309 s_1_8  > -976.838822
tt + 1000 s_2_4 > 0.0
tt - t_2_4 - 1006.096398 s_2_4  + 2.010150 s_2_3  + 4.086248 s_2_8  > -967.531100
tt + 1000 s_1_5 > 0.0
tt - t_1_5 - 1006.766619 s_1_5  + 3.383309 s_1_7  + 3.383309 s_1_8  > -966.429700
tt + 1000 s_2_5 > 0.0
tt - t_2_5 - 1008.172497 s_2_5  + 4.086248 s_2_7  + 4.086248 s_2_8  > -954.637900
tt + 1000 s_1_6 > 0.0
tt - t_1_6 - 1006.373159 s_1_6  + 1.274632 s_1_3  + 1.274632 s_1_2  + 1.274632 s_1_1  + 1.274632 s_1_5  + 1.274632 s_1_4  > -997.716300
tt + 1000 s_2_6 > 0.0
tt - t_2_6 - 1010.050748 s_2_6  + 2.010150 s_2_3  + 2.010150 s_2_2  + 2.010150 s_2_1  + 2.010150 s_2_5  + 2.010150 s_2_4  > -969.791400
tt + 1000 s_1_7 > 0.0
tt - t_1_7 - 1000.000000 s_1_7  > -906.498400
tt + 1000 s_2_7 > 0.0
tt - t_2_7 - 1000.000000 s_2_7  > -888.375100
tt + 1000 s_1_8 > 0.0
tt - t_1_8 - 1000.000000 s_1_8  > -907.288600
tt + 1000 s_2_8 > 0.0
tt - t_2_8 - 1000.000000 s_2_8  > -888.283200
s_1_1 + s_2_1 = 1
s_1_2 + s_2_2 = 1
s_1_3 + s_2_3 = 1
s_1_4 + s_2_4 = 1
s_1_5 + s_2_5 = 1
s_1_6 + s_2_6 = 1
s_1_7 + s_2_7 = 1
s_1_8 + s_2_8 = 1
s_1_1 + s_1_2 + 1000 r_1_1_2 >= 2
- s_1_1 - s_1_2 - 1000 r_1_1_2 >= -1001
t_1_1 - t_1_2 - 1000.000000 u_1_1_2 - 3.383309 s_1_2  + 3.383309 s_1_8  + 2000.000000 r_1_1_2 > -971.257200
s_2_1 + s_2_2 + 1000 r_2_1_2 >= 2
- s_2_1 - s_2_2 - 1000 r_2_1_2 >= -1001
t_2_1 - t_2_2 - 1000.000000 u_2_1_2 - 4.086248 s_2_2  + 4.086248 s_2_8  + 2000.000000 r_2_1_2 > -958.420600
s_1_1 + s_1_3 + 1000 r_1_1_3 >= 2
- s_1_1 - s_1_3 - 1000 r_1_1_3 >= -1001
t_1_1 - t_1_3 - 1000.000000 u_1_1_3 - 3.383309 s_1_3  + 3.383309 s_1_8  + 2000.000000 r_1_1_3 > -957.400600
s_2_1 + s_2_3 + 1000 r_2_1_3 >= 2
- s_2_1 - s_2_3 - 1000 r_2_1_3 >= -1001
t_2_1 - t_2_3 - 1000.000000 u_2_1_3 - 4.086248 s_2_3  + 4.086248 s_2_8  + 2000.000000 r_2_1_3 > -936.744400
s_1_1 + s_1_4 + 1000 r_1_1_4 >= 2
- s_1_1 - s_1_4 - 1000 r_1_1_4 >= -1001
t_1_1 - t_1_4 - 1000.000000 u_1_1_4 - 4.657941 s_1_4  + 1.274632 s_1_3  + 3.383309 s_1_8  + 2000.000000 r_1_1_4 > -976.838822
s_2_1 + s_2_4 + 1000 r_2_1_4 >= 2
- s_2_1 - s_2_4 - 1000 r_2_1_4 >= -1001
t_2_1 - t_2_4 - 1000.000000 u_2_1_4 - 6.096398 s_2_4  + 2.010150 s_2_3  + 4.086248 s_2_8  + 2000.000000 r_2_1_4 > -967.531100
s_1_1 + s_1_5 + 1000 r_1_1_5 >= 2
- s_1_1 - s_1_5 - 1000 r_1_1_5 >= -1001
t_1_1 - t_1_5 - 1000.000000 u_1_1_5 - 6.766619 s_1_5  + 3.383309 s_1_7  + 3.383309 s_1_8  + 2000.000000 r_1_1_5 > -966.429700
s_2_1 + s_2_5 + 1000 r_2_1_5 >= 2
- s_2_1 - s_2_5 - 1000 r_2_1_5 >= -1001
t_2_1 - t_2_5 - 1000.000000 u_2_1_5 - 8.172497 s_2_5  + 4.086248 s_2_7  + 4.086248 s_2_8  + 2000.000000 r_2_1_5 > -954.637900
t_1_6 - t_1_1 - 1003.383309 s_1_1  + 3.383309 s_1_7  > -973.537678
t_1_6 - t_2_1 - 1004.086248 s_2_1  + 4.086248 s_2_7  > -962.999000
t_2_6 - t_1_1 - 1003.383309 s_1_1  + 3.383309 s_1_7  > -973.537678
t_2_6 - t_2_1 - 1004.086248 s_2_1  + 4.086248 s_2_7  > -962.999000
t_1_1 - t_1_7 - 1000.000000 s_1_7  > -906.498400
t_1_1 - t_2_7 - 1000.000000 s_2_7  > -888.375100
t_2_1 - t_1_7 - 1000.000000 s_1_7  > -906.498400
t_2_1 - t_2_7 - 1000.000000 s_2_7  > -888.375100
s_1_1 + s_1_8 + 1000 r_1_1_8 >= 2
- s_1_1 - s_1_8 - 1000 r_1_1_8 >= -1001
t_1_1 - t_1_8 - 1000.000000 u_1_1_8 - 0.000000 s_1_8  + 2000.000000 r_1_1_8 > -907.288600
s_2_1 + s_2_8 + 1000 r_2_1_8 >= 2
- s_2_1 - s_2_8 - 1000 r_2_1_8 >= -1001
t_2_1 - t_2_8 - 1000.000000 u_2_1_8 - 0.000000 s_2_8  + 2000.000000 r_2_1_8 > -888.283200
s_1_2 + s_1_1 + 1000 r_1_1_2 >= 2
- s_1_2 - s_1_1 - 1000 r_1_1_2 >= -1001
t_1_2 - t_1_1 + 1000.000000 u_1_1_2 - 3.383309 s_1_1  + 3.383309 s_1_7  + 2000.000000 r_1_1_2 > 26.462322
s_2_2 + s_2_1 + 1000 r_2_1_2 >= 2
- s_2_2 - s_2_1 - 1000 r_2_1_2 >= -1001
t_2_2 - t_2_1 + 1000.000000 u_2_1_2 - 4.086248 s_2_1  + 4.086248 s_2_7  + 2000.000000 r_2_1_2 > 37.001000
s_1_2 + s_1_3 + 1000 r_1_2_3 >= 2
- s_1_2 - s_1_3 - 1000 r_1_2_3 >= -1001
t_1_2 - t_1_3 - 1000.000000 u_1_2_3 - 3.383309 s_1_3  + 3.383309 s_1_8  + 2000.000000 r_1_2_3 > -957.400600
s_2_2 + s_2_3 + 1000 r_2_2_3 >= 2
- s_2_2 - s_2_3 - 1000 r_2_2_3 >= -1001
t_2_2 - t_2_3 - 1000.000000 u_2_2_3 - 4.086248 s_2_3  + 4.086248 s_2_8  + 2000.000000 r_2_2_3 > -936.744400
s_1_2 + s_1_4 + 1000 r_1_2_4 >= 2
- s_1_2 - s_1_4 - 1000 r_1_2_4 >= -1001
t_1_2 - t_1_4 - 1000.000000 u_1_2_4 - 4.657941 s_1_4  + 1.274632 s_1_3  + 3.383309 s_1_8  + 2000.000000 r_1_2_4 > -976.838822
s_2_2 + s_2_4 + 1000 r_2_2_4 >= 2
- s_2_2 - s_2_4 - 1000 r_2_2_4 >= -1001
t_2_2 - t_2_4 - 1000.000000 u_2_2_4 - 6.096398 s_2_4  + 2.010150 s_2_3  + 4.086248 s_2_8  + 2000.000000 r_2_2_4 > -967.531100
s_1_2 + s_1_5 + 1000 r_1_2_5 >= 2
- s_1_2 - s_1_5 - 1000 r_1_2_5 >= -1001
t_1_2 - t_1_5 - 1000.000000 u_1_2_5 - 6.766619 s_1_5  + 3.383309 s_1_7  + 3.383309 s_1_8  + 2000.000000 r_1_2_5 > -966.429700
s_2_2 + s_2_5 + 1000 r_2_2_5 >= 2
- s_2_2 - s_2_5 - 1000 r_2_2_5 >= -1001
t_2_2 - t_2_5 - 1000.000000 u_2_2_5 - 8.172497 s_2_5  + 4.086248 s_2_7  + 4.086248 s_2_8  + 2000.000000 r_2_2_5 > -954.637900
t_1_6 - t_1_2 - 1003.383309 s_1_2  + 3.383309 s_1_8  > -971.257200
t_1_6 - t_2_2 - 1004.086248 s_2_2  + 4.086248 s_2_8  > -958.420600
t_2_6 - t_1_2 - 1003.383309 s_1_2  + 3.383309 s_1_8  > -971.257200
t_2_6 - t_2_2 - 1004.086248 s_2_2  + 4.086248 s_2_8  > -958.420600
s_1_2 + s_1_7 + 1000 r_1_2_7 >= 2
- s_1_2 - s_1_7 - 1000 r_1_2_7 >= -1001
t_1_2 - t_1_7 - 1000.000000 u_1_2_7 - 0.000000 s_1_7  + 2000.000000 r_1_2_7 > -906.498400
s_2_2 + s_2_7 + 1000 r_2_2_7 >= 2
- s_2_2 - s_2_7 - 1000 r_2_2_7 >= -1001
t_2_2 - t_2_7 - 1000.000000 u_2_2_7 - 0.000000 s_2_7  + 2000.000000 r_2_2_7 > -888.375100
t_1_2 - t_1_8 - 1000.000000 s_1_8  > -907.288600
t_1_2 - t_2_8 - 1000.000000 s_2_8  > -888.283200
t_2_2 - t_1_8 - 1000.000000 s_1_8  > -907.288600
t_2_2 - t_2_8 - 1000.000000 s_2_8  > -888.283200
s_1_3 + s_1_1 + 1000 r_1_1_3 >= 2
- s_1_3 - s_1_1 - 1000 r_1_1_3 >= -1001
t_1_3 - t_1_1 + 1000.000000 u_1_1_3 - 3.383309 s_1_1  + 3.383309 s_1_7  + 2000.000000 r_1_1_3 > 26.462322
s_2_3 + s_2_1 + 1000 r_2_1_3 >= 2
- s_2_3 - s_2_1 - 1000 r_2_1_3 >= -1001
t_2_3 - t_2_1 + 1000.000000 u_2_1_3 - 4.086248 s_2_1  + 4.086248 s_2_7  + 2000.000000 r_2_1_3 > 37.001000
s_1_3 + s_1_2 + 1000 r_1_2_3 >= 2
- s_1_3 - s_1_2 - 1000 r_1_2_3 >= -1001
t_1_3 - t_1_2 + 1000.000000 u_1_2_3 - 3.383309 s_1_2  + 3.383309 s_1_8  + 2000.000000 r_1_2_3 > 28.742800
s_2_3 + s_2_2 + 1000 r_2_2_3 >= 2
- s_2_3 - s_2_2 - 1000 r_2_2_3 >= -1001
t_2_3 - t_2_2 + 1000.000000 u_2_2_3 - 4.086248 s_2_2  + 4.086248 s_2_8  + 2000.000000 r_2_2_3 > 41.579400
t_1_4 - t_1_3 - 1003.383309 s_1_3  + 3.383309 s_1_8  > -957.400600
t_1_4 - t_2_3 - 1004.086248 s_2_3  + 4.086248 s_2_8  > -936.744400
t_2_4 - t_1_3 - 1003.383309 s_1_3  + 3.383309 s_1_8  > -957.400600
t_2_4 - t_2_3 - 1004.086248 s_2_3  + 4.086248 s_2_8  > -936.744400
s_1_3 + s_1_5 + 1000 r_1_3_5 >= 2
- s_1_3 - s_1_5 - 1000 r_1_3_5 >= -1001
t_1_3 - t_1_5 - 1000.000000 u_1_3_5 - 6.766619 s_1_5  + 3.383309 s_1_7  + 3.383309 s_1_8  + 2000.000000 r_1_3_5 > -966.429700
s_2_3 + s_2_5 + 1000 r_2_3_5 >= 2
- s_2_3 - s_2_5 - 1000 r_2_3_5 >= -1001
t_2_3 - t_2_5 - 1000.000000 u_2_3_5 - 8.172497 s_2_5  + 4.086248 s_2_7  + 4.086248 s_2_8  + 2000.000000 r_2_3_5 > -954.637900
t_1_6 - t_1_3 - 1003.383309 s_1_3  + 3.383309 s_1_8  > -957.400600
t_1_6 - t_2_3 - 1004.086248 s_2_3  + 4.086248 s_2_8  > -936.744400
t_2_6 - t_1_3 - 1003.383309 s_1_3  + 3.383309 s_1_8  > -957.400600
t_2_6 - t_2_3 - 1004.086248 s_2_3  + 4.086248 s_2_8  > -936.744400
s_1_3 + s_1_7 + 1000 r_1_3_7 >= 2
- s_1_3 - s_1_7 - 1000 r_1_3_7 >= -1001
t_1_3 - t_1_7 - 1000.000000 u_1_3_7 - 0.000000 s_1_7  + 2000.000000 r_1_3_7 > -906.498400
s_2_3 + s_2_7 + 1000 r_2_3_7 >= 2
- s_2_3 - s_2_7 - 1000 r_2_3_7 >= -1001
t_2_3 - t_2_7 - 1000.000000 u_2_3_7 - 0.000000 s_2_7  + 2000.000000 r_2_3_7 > -888.375100
t_1_3 - t_1_8 - 1000.000000 s_1_8  > -907.288600
t_1_3 - t_2_8 - 1000.000000 s_2_8  > -888.283200
t_2_3 - t_1_8 - 1000.000000 s_1_8  > -907.288600
t_2_3 - t_2_8 - 1000.000000 s_2_8  > -888.283200
s_1_4 + s_1_1 + 1000 r_1_1_4 >= 2
- s_1_4 - s_1_1 - 1000 r_1_1_4 >= -1001
t_1_4 - t_1_1 + 1000.000000 u_1_1_4 - 3.383309 s_1_1  + 3.383309 s_1_7  + 2000.000000 r_1_1_4 > 26.462322
s_2_4 + s_2_1 + 1000 r_2_1_4 >= 2
- s_2_4 - s_2_1 - 1000 r_2_1_4 >= -1001
t_2_4 - t_2_1 + 1000.000000 u_2_1_4 - 4.086248 s_2_1  + 4.086248 s_2_7  + 2000.000000 r_2_1_4 > 37.001000
s_1_4 + s_1_2 + 1000 r_1_2_4 >= 2
- s_1_4 - s_1_2 - 1000 r_1_2_4 >= -1001
t_1_4 - t_1_2 + 1000.000000 u_1_2_4 - 3.383309 s_1_2  + 3.383309 s_1_8  + 2000.000000 r_1_2_4 > 28.742800
s_2_4 + s_2_2 + 1000 r_2_2_4 >= 2
- s_2_4 - s_2_2 - 1000 r_2_2_4 >= -1001
t_2_4 - t_2_2 + 1000.000000 u_2_2_4 - 4.086248 s_2_2  + 4.086248 s_2_8  + 2000.000000 r_2_2_4 > 41.579400
s_1_4 + s_1_5 + 1000 r_1_4_5 >= 2
- s_1_4 - s_1_5 - 1000 r_1_4_5 >= -1001
t_1_4 - t_1_5 - 1000.000000 u_1_4_5 - 6.766619 s_1_5  + 3.383309 s_1_7  + 3.383309 s_1_8  + 2000.000000 r_1_4_5 > -966.429700
s_2_4 + s_2_5 + 1000 r_2_4_5 >= 2
- s_2_4 - s_2_5 - 1000 r_2_4_5 >= -1001
t_2_4 - t_2_5 - 1000.000000 u_2_4_5 - 8.172497 s_2_5  + 4.086248 s_2_7  + 4.086248 s_2_8  + 2000.000000 r_2_4_5 > -954.637900
t_1_6 - t_1_4 - 1004.657941 s_1_4  + 1.274632 s_1_3  + 3.383309 s_1_8  > -976.838822
t_1_6 - t_2_4 - 1006.096398 s_2_4  + 2.010150 s_2_3  + 4.086248 s_2_8  > -967.531100
t_2_6 - t_1_4 - 1004.657941 s_1_4  + 1.274632 s_1_3  + 3.383309 s_1_8  > -976.838822
t_2_6 - t_2_4 - 1006.096398 s_2_4  + 2.010150 s_2_3  + 4.086248 s_2_8  > -967.531100
s_1_4 + s_1_7 + 1000 r_1_4_7 >= 2
- s_1_4 - s_1_7 - 1000 r_1_4_7 >= -1001
t_1_4 - t_1_7 - 1000.000000 u_1_4_7 - 0.000000 s_1_7  + 2000.000000 r_1_4_7 > -906.498400
s_2_4 + s_2_7 + 1000 r_2_4_7 >= 2
- s_2_4 - s_2_7 - 1000 r_2_4_7 >= -1001
t_2_4 - t_2_7 - 1000.000000 u_2_4_7 - 0.000000 s_2_7  + 2000.000000 r_2_4_7 > -888.375100
t_1_4 - t_1_8 - 1000.000000 s_1_8  > -907.288600
t_1_4 - t_2_8 - 1000.000000 s_2_8  > -888.283200
t_2_4 - t_1_8 - 1000.000000 s_1_8  > -907.288600
t_2_4 - t_2_8 - 1000.000000 s_2_8  > -888.283200
s_1_5 + s_1_1 + 1000 r_1_1_5 >= 2
- s_1_5 - s_1_1 - 1000 r_1_1_5 >= -1001
t_1_5 - t_1_1 + 1000.000000 u_1_1_5 - 3.383309 s_1_1  + 3.383309 s_1_7  + 2000.000000 r_1_1_5 > 26.462322
s_2_5 + s_2_1 + 1000 r_2_1_5 >= 2
- s_2_5 - s_2_1 - 1000 r_2_1_5 >= -1001
t_2_5 - t_2_1 + 1000.000000 u_2_1_5 - 4.086248 s_2_1  + 4.086248 s_2_7  + 2000.000000 r_2_1_5 > 37.001000
s_1_5 + s_1_2 + 1000 r_1_2_5 >= 2
- s_1_5 - s_1_2 - 1000 r_1_2_5 >= -1001
t_1_5 - t_1_2 + 1000.000000 u_1_2_5 - 3.383309 s_1_2  + 3.383309 s_1_8  + 2000.000000 r_1_2_5 > 28.742800
s_2_5 + s_2_2 + 1000 r_2_2_5 >= 2
- s_2_5 - s_2_2 - 1000 r_2_2_5 >= -1001
t_2_5 - t_2_2 + 1000.000000 u_2_2_5 - 4.086248 s_2_2  + 4.086248 s_2_8  + 2000.000000 r_2_2_5 > 41.579400
s_1_5 + s_1_3 + 1000 r_1_3_5 >= 2
- s_1_5 - s_1_3 - 1000 r_1_3_5 >= -1001
t_1_5 - t_1_3 + 1000.000000 u_1_3_5 - 3.383309 s_1_3  + 3.383309 s_1_8  + 2000.000000 r_1_3_5 > 42.599400
s_2_5 + s_2_3 + 1000 r_2_3_5 >= 2
- s_2_5 - s_2_3 - 1000 r_2_3_5 >= -1001
t_2_5 - t_2_3 + 1000.000000 u_2_3_5 - 4.086248 s_2_3  + 4.086248 s_2_8  + 2000.000000 r_2_3_5 > 63.255600
s_1_5 + s_1_4 + 1000 r_1_4_5 >= 2
- s_1_5 - s_1_4 - 1000 r_1_4_5 >= -1001
t_1_5 - t_1_4 + 1000.000000 u_1_4_5 - 4.657941 s_1_4  + 1.274632 s_1_3  + 3.383309 s_1_8  + 2000.000000 r_1_4_5 > 23.161178
s_2_5 + s_2_4 + 1000 r_2_4_5 >= 2
- s_2_5 - s_2_4 - 1000 r_2_4_5 >= -1001
t_2_5 - t_2_4 + 1000.000000 u_2_4_5 - 6.096398 s_2_4  + 2.010150 s_2_3  + 4.086248 s_2_8  + 2000.000000 r_2_4_5 > 32.468900
t_1_6 - t_1_5 - 1006.766619 s_1_5  + 3.383309 s_1_7  + 3.383309 s_1_8  > -966.429700
t_1_6 - t_2_5 - 1008.172497 s_2_5  + 4.086248 s_2_7  + 4.086248 s_2_8  > -954.637900
t_2_6 - t_1_5 - 1006.766619 s_1_5  + 3.383309 s_1_7  + 3.383309 s_1_8  > -966.429700
t_2_6 - t_2_5 - 1008.172497 s_2_5  + 4.086248 s_2_7  + 4.086248 s_2_8  > -954.637900
t_1_5 - t_1_7 - 1000.000000 s_1_7  > -906.498400
t_1_5 - t_2_7 - 1000.000000 s_2_7  > -888.375100
t_2_5 - t_1_7 - 1000.000000 s_1_7  > -906.498400
t_2_5 - t_2_7 - 1000.000000 s_2_7  > -888.375100
t_1_5 - t_1_8 - 1000.000000 s_1_8  > -907.288600
t_1_5 - t_2_8 - 1000.000000 s_2_8  > -888.283200
t_2_5 - t_1_8 - 1000.000000 s_1_8  > -907.288600
t_2_5 - t_2_8 - 1000.000000 s_2_8  > -888.283200
s_1_7 + s_1_2 + 1000 r_1_2_7 >= 2
- s_1_7 - s_1_2 - 1000 r_1_2_7 >= -1001
t_1_7 - t_1_2 + 1000.000000 u_1_2_7 - 3.383309 s_1_2  + 3.383309 s_1_8  + 2000.000000 r_1_2_7 > 28.742800
s_2_7 + s_2_2 + 1000 r_2_2_7 >= 2
- s_2_7 - s_2_2 - 1000 r_2_2_7 >= -1001
t_2_7 - t_2_2 + 1000.000000 u_2_2_7 - 4.086248 s_2_2  + 4.086248 s_2_8  + 2000.000000 r_2_2_7 > 41.579400
s_1_7 + s_1_3 + 1000 r_1_3_7 >= 2
- s_1_7 - s_1_3 - 1000 r_1_3_7 >= -1001
t_1_7 - t_1_3 + 1000.000000 u_1_3_7 - 3.383309 s_1_3  + 3.383309 s_1_8  + 2000.000000 r_1_3_7 > 42.599400
s_2_7 + s_2_3 + 1000 r_2_3_7 >= 2
- s_2_7 - s_2_3 - 1000 r_2_3_7 >= -1001
t_2_7 - t_2_3 + 1000.000000 u_2_3_7 - 4.086248 s_2_3  + 4.086248 s_2_8  + 2000.000000 r_2_3_7 > 63.255600
s_1_7 + s_1_4 + 1000 r_1_4_7 >= 2
- s_1_7 - s_1_4 - 1000 r_1_4_7 >= -1001
t_1_7 - t_1_4 + 1000.000000 u_1_4_7 - 4.657941 s_1_4  + 1.274632 s_1_3  + 3.383309 s_1_8  + 2000.000000 r_1_4_7 > 23.161178
s_2_7 + s_2_4 + 1000 r_2_4_7 >= 2
- s_2_7 - s_2_4 - 1000 r_2_4_7 >= -1001
t_2_7 - t_2_4 + 1000.000000 u_2_4_7 - 6.096398 s_2_4  + 2.010150 s_2_3  + 4.086248 s_2_8  + 2000.000000 r_2_4_7 > 32.468900
s_1_7 + s_1_8 + 1000 r_1_7_8 >= 2
- s_1_7 - s_1_8 - 1000 r_1_7_8 >= -1001
t_1_7 - t_1_8 - 1000.000000 u_1_7_8 - 0.000000 s_1_8  + 2000.000000 r_1_7_8 > -907.288600
s_2_7 + s_2_8 + 1000 r_2_7_8 >= 2
- s_2_7 - s_2_8 - 1000 r_2_7_8 >= -1001
t_2_7 - t_2_8 - 1000.000000 u_2_7_8 - 0.000000 s_2_8  + 2000.000000 r_2_7_8 > -888.283200
s_1_8 + s_1_1 + 1000 r_1_1_8 >= 2
- s_1_8 - s_1_1 - 1000 r_1_1_8 >= -1001
t_1_8 - t_1_1 + 1000.000000 u_1_1_8 - 3.383309 s_1_1  + 3.383309 s_1_7  + 2000.000000 r_1_1_8 > 26.462322
s_2_8 + s_2_1 + 1000 r_2_1_8 >= 2
- s_2_8 - s_2_1 - 1000 r_2_1_8 >= -1001
t_2_8 - t_2_1 + 1000.000000 u_2_1_8 - 4.086248 s_2_1  + 4.086248 s_2_7  + 2000.000000 r_2_1_8 > 37.001000
s_1_8 + s_1_7 + 1000 r_1_7_8 >= 2
- s_1_8 - s_1_7 - 1000 r_1_7_8 >= -1001
t_1_8 - t_1_7 + 1000.000000 u_1_7_8 - 0.000000 s_1_7  + 2000.000000 r_1_7_8 > 93.501600
s_2_8 + s_2_7 + 1000 r_2_7_8 >= 2
- s_2_8 - s_2_7 - 1000 r_2_7_8 >= -1001
t_2_8 - t_2_7 + 1000.000000 u_2_7_8 - 0.000000 s_2_7  + 2000.000000 r_2_7_8 > 111.624900
Binary
s_1_1
s_2_1
s_1_2
s_2_2
s_1_3
s_2_3
s_1_4
s_2_4
s_1_5
s_2_5
s_1_6
s_2_6
s_1_7
s_2_7
s_1_8
s_2_8
u_1_1_2
r_1_1_2
u_2_1_2
r_2_1_2
u_1_1_3
r_1_1_3
u_2_1_3
r_2_1_3
u_1_1_4
r_1_1_4
u_2_1_4
r_2_1_4
u_1_1_5
r_1_1_5
u_2_1_5
r_2_1_5
u_1_1_8
r_1_1_8
u_2_1_8
r_2_1_8
u_1_2_3
r_1_2_3
u_2_2_3
r_2_2_3
u_1_2_4
r_1_2_4
u_2_2_4
r_2_2_4
u_1_2_5
r_1_2_5
u_2_2_5
r_2_2_5
u_1_2_7
r_1_2_7
u_2_2_7
r_2_2_7
u_1_3_5
r_1_3_5
u_2_3_5
r_2_3_5
u_1_3_7
r_1_3_7
u_2_3_7
r_2_3_7
u_1_4_5
r_1_4_5
u_2_4_5
r_2_4_5
u_1_4_7
r_1_4_7
u_2_4_7
r_2_4_7
u_1_7_8
r_1_7_8
u_2_7_8
r_2_7_8

End
